c Generated map
c Size: 13 * 13, weights in range: 1 to 10, walls: True, with ratio 0.2
c dim 1 of 3
c
p sp 169 193
c graph contains 169 nodes and 193 arcs
c
a 1 14 10
a 14 1 10
a 1 2 6
a 2 1 6
a 2 15 8
a 15 2 8
a 4 17 8
a 17 4 8
a 4 5 5
a 5 4 5
a 5 18 8
a 18 5 8
a 5 6 1
a 6 5 1
a 6 19 4
a 19 6 4
a 6 7 3
a 7 6 3
a 7 20 6
a 20 7 6
a 9 22 4
a 22 9 4
a 9 10 2
a 10 9 2
a 10 23 10
a 23 10 10
a 12 25 4
a 25 12 4
a 12 13 8
a 13 12 8
a 13 26 10
a 26 13 10
a 14 27 1
a 27 14 1
a 14 15 1
a 15 14 1
a 15 16 4
a 16 15 4
a 16 29 4
a 29 16 4
a 16 17 4
a 17 16 4
a 17 30 5
a 30 17 5
a 17 18 6
a 18 17 6
a 18 31 1
a 31 18 1
a 18 19 2
a 19 18 2
a 19 20 2
a 20 19 2
a 20 33 3
a 33 20 3
a 20 21 8
a 21 20 8
a 21 34 10
a 34 21 10
a 21 22 2
a 22 21 2
a 22 35 10
a 35 22 10
a 22 23 3
a 23 22 3
a 23 36 6
a 36 23 6
a 23 24 9
a 24 23 9
a 24 25 4
a 25 24 4
a 25 38 10
a 38 25 10
a 25 26 6
a 26 25 6
a 27 40 1
a 40 27 1
a 29 30 6
a 30 29 6
a 30 43 7
a 43 30 7
a 30 31 4
a 31 30 4
a 31 44 9
a 44 31 9
a 33 46 2
a 46 33 2
a 33 34 2
a 34 33 2
a 34 47 4
a 47 34 4
a 34 35 4
a 35 34 4
a 35 48 9
a 48 35 9
a 35 36 8
a 36 35 8
a 36 49 2
a 49 36 2
a 38 51 10
a 51 38 10
a 40 41 7
a 41 40 7
a 41 54 8
a 54 41 8
a 43 56 9
a 56 43 9
a 43 44 8
a 44 43 8
a 44 57 2
a 57 44 2
a 46 47 6
a 47 46 6
a 47 60 4
a 60 47 4
a 47 48 10
a 48 47 10
a 48 49 7
a 49 48 7
a 49 62 3
a 62 49 3
a 51 64 7
a 64 51 7
a 51 52 5
a 52 51 5
a 52 65 3
a 65 52 3
a 54 55 10
a 55 54 10
a 55 68 6
a 68 55 6
a 55 56 9
a 56 55 9
a 56 69 2
a 69 56 2
a 56 57 4
a 57 56 4
a 57 58 9
a 58 57 9
a 58 71 10
a 71 58 10
a 60 73 2
a 73 60 2
a 62 75 9
a 75 62 9
a 62 63 8
a 63 62 8
a 63 76 5
a 76 63 5
a 63 64 10
a 64 63 10
a 64 77 1
a 77 64 1
a 64 65 1
a 65 64 1
a 65 78 4
a 78 65 4
a 68 81 2
a 81 68 2
a 68 69 8
a 69 68 8
a 71 84 1
a 84 71 1
a 71 72 9
a 72 71 9
a 72 73 2
a 73 72 2
a 73 86 8
a 86 73 8
a 75 88 3
a 88 75 3
a 75 76 10
a 76 75 10
a 76 89 3
a 89 76 3
a 76 77 9
a 77 76 9
a 77 90 4
a 90 77 4
a 77 78 1
a 78 77 1
a 78 91 8
a 91 78 8
a 80 93 6
a 93 80 6
a 80 81 8
a 81 80 8
a 83 96 8
a 96 83 8
a 83 84 10
a 84 83 10
a 84 97 6
a 97 84 6
a 86 87 5
a 87 86 5
a 87 100 9
a 100 87 9
a 87 88 6
a 88 87 6
a 88 101 6
a 101 88 6
a 88 89 7
a 89 88 7
a 89 102 1
a 102 89 1
a 89 90 7
a 90 89 7
a 90 103 8
a 103 90 8
a 90 91 8
a 91 90 8
a 93 106 1
a 106 93 1
a 95 108 9
a 108 95 9
a 95 96 9
a 96 95 9
a 96 109 8
a 109 96 8
a 96 97 7
a 97 96 7
a 97 98 3
a 98 97 3
a 100 113 10
a 113 100 10
a 100 101 2
a 101 100 2
a 101 102 1
a 102 101 1
a 102 115 2
a 115 102 2
a 102 103 7
a 103 102 7
a 103 116 6
a 116 103 6
a 105 106 8
a 106 105 8
a 106 119 10
a 119 106 10
a 106 107 7
a 107 106 7
a 107 120 6
a 120 107 6
a 107 108 7
a 108 107 7
a 108 121 6
a 121 108 6
a 108 109 6
a 109 108 6
a 109 122 1
a 122 109 1
a 112 113 7
a 113 112 7
a 115 128 9
a 128 115 9
a 115 116 6
a 116 115 6
a 116 117 8
a 117 116 8
a 117 130 7
a 130 117 7
a 119 132 3
a 132 119 3
a 119 120 9
a 120 119 9
a 120 133 6
a 133 120 6
a 120 121 10
a 121 120 10
a 121 134 4
a 134 121 4
a 121 122 5
a 122 121 5
a 122 135 3
a 135 122 3
a 122 123 9
a 123 122 9
a 123 136 7
a 136 123 7
a 123 124 8
a 124 123 8
a 127 140 1
a 140 127 1
a 127 128 8
a 128 127 8
a 128 141 10
a 141 128 10
a 130 143 8
a 143 130 8
a 131 144 3
a 144 131 3
a 131 132 5
a 132 131 5
a 132 145 8
a 145 132 8
a 132 133 10
a 133 132 10
a 133 146 10
a 146 133 10
a 133 134 6
a 134 133 6
a 134 147 9
a 147 134 9
a 134 135 7
a 135 134 7
a 135 148 1
a 148 135 1
a 135 136 4
a 136 135 4
a 136 149 7
a 149 136 7
a 138 151 7
a 151 138 7
a 138 139 5
a 139 138 5
a 139 140 9
a 140 139 9
a 140 153 5
a 153 140 5
a 140 141 6
a 141 140 6
a 141 154 9
a 154 141 9
a 141 142 6
a 142 141 6
a 142 155 4
a 155 142 4
a 142 143 8
a 143 142 8
a 143 156 7
a 156 143 7
a 144 157 4
a 157 144 4
a 144 145 7
a 145 144 7
a 145 158 4
a 158 145 4
a 145 146 7
a 146 145 7
a 146 147 1
a 147 146 1
a 147 160 9
a 160 147 9
a 147 148 9
a 148 147 9
a 148 161 10
a 161 148 10
a 148 149 10
a 149 148 10
a 149 150 6
a 150 149 6
a 150 163 7
a 163 150 7
a 150 151 2
a 151 150 2
a 151 164 4
a 164 151 4
a 153 166 6
a 166 153 6
a 153 154 9
a 154 153 9
a 154 167 7
a 167 154 7
a 154 155 7
a 155 154 7
a 155 168 6
a 168 155 6
a 155 156 4
a 156 155 4
a 156 169 8
a 169 156 8
a 157 158 9
a 158 157 9
a 160 161 8
a 161 160 8
a 163 164 5
a 164 163 5
a 164 165 7
a 165 164 7
a 165 166 5
a 166 165 5
a 166 167 3
a 167 166 3
a 167 168 1
a 168 167 1
a 168 169 7
a 169 168 7
